
Log started (V12.8.0.0) Thu Aug 30 12:39:05 2018

New value for time limit in seconds: 500
CPXPARAM_TimeLimit                               500
CPXPARAM_Emphasis_Numerical                      1
CPXPARAM_Parallel                                -1
CPXPARAM_Benders_Strategy                        3
CPXPARAM_MIP_Tolerances_Integrality              9.9999999999999995e-08
CPXPARAM_MIP_Pool_AbsGap                         0
Tried aggregator 4 times.
MIP Presolve eliminated 7506 rows and 3536 columns.
MIP Presolve added 236 rows and 0 columns.
Aggregator did 1223 substitutions.
Reduced MIP has 3383 rows, 2709 columns, and 11360 nonzeros.
Reduced MIP has 271 binaries, 0 generals, 0 SOSs, and 0 indicators.
Presolve time = 0.01 sec. (16.36 ticks)
Found incumbent of value -5.500000 after 0.03 sec. (25.88 ticks)
Tried aggregator 1 time.
MIP Presolve eliminated 236 rows and 0 columns.
MIP Presolve added 236 rows and 0 columns.
MIP Presolve modified 10 coefficients.
Reduced MIP has 3383 rows, 2709 columns, and 11360 nonzeros.
Reduced MIP has 271 binaries, 0 generals, 0 SOSs, and 0 indicators.
Presolve time = 0.00 sec. (4.16 ticks)

        Nodes                                         Cuts/
   Node  Left     Objective  IInf  Best Integer    Best Bound    ItCnt     Gap

      0     0        0.0000                       Benders: 10        0         
      0     0        0.0000                        Benders: 1        4         
      0     0        0.0000                        Benders: 2        6         
      0     0        0.0000                        Benders: 1        8         
      0     0        0.0000                            0.0000        9         
Tried aggregator 1 time.
MIP Presolve eliminated 236 rows and 0 columns.
MIP Presolve modified 158 coefficients.
Reduced MIP has 271 rows, 281 columns, and 856 nonzeros.
Reduced MIP has 271 binaries, 0 generals, 0 SOSs, and 0 indicators.
Presolve time = 0.00 sec. (0.93 ticks)
Probing time = 0.00 sec. (0.33 ticks)
Tried aggregator 1 time.
Reduced MIP has 271 rows, 281 columns, and 856 nonzeros.
Reduced MIP has 271 binaries, 0 generals, 0 SOSs, and 0 indicators.
Presolve time = 0.00 sec. (0.57 ticks)
Probing time = 0.00 sec. (0.33 ticks)
Clique table members: 256.
MIP emphasis: balance optimality and feasibility.
MIP search method: dynamic search.
Parallel mode: opportunistic, using up to 8 threads.
Root relaxation solution time = 0.00 sec. (0.32 ticks)
*     0+    0                           -5.5000       -0.0000           100.00%
      0     0        0.0000     9       -5.5000       -0.0000       29  100.00%
      0     0        0.0000     7       -5.5000      Fract: 3       31  100.00%
      0     0        0.0000    10       -5.5000      Cuts: 10       40  100.00%

Repeating presolve.
Tried aggregator 1 time.
Reduced MIP has 271 rows, 281 columns, and 856 nonzeros.
Reduced MIP has 271 binaries, 0 generals, 0 SOSs, and 0 indicators.
Presolve time = 0.00 sec. (0.58 ticks)
Probing time = 0.00 sec. (0.33 ticks)
Tried aggregator 1 time.
Reduced MIP has 271 rows, 281 columns, and 856 nonzeros.
Reduced MIP has 271 binaries, 0 generals, 0 SOSs, and 0 indicators.
Presolve time = 0.00 sec. (0.57 ticks)
Represolve time = 0.00 sec. (2.12 ticks)
Probing time = 0.00 sec. (0.33 ticks)
Clique table members: 256.
MIP emphasis: balance optimality and feasibility.
MIP search method: dynamic search.
Parallel mode: opportunistic, using up to 8 threads.
Root relaxation solution time = 0.00 sec. (0.57 ticks)
*     0+    0                           -5.5000       -0.0000           100.00%
      0     0        0.0000    10       -5.5000       -0.0000       85  100.00%
      0     0        0.0000    12       -5.5000       Cuts: 4       96  100.00%
*     0+    0                           -3.2833       -0.0000           100.00%
      0     0        0.0000     7       -3.2833      Fract: 4       98  100.00%
      0     0        0.0000    10       -3.2833    Benders: 1      103  100.00%
      0     2        0.0000     5       -3.2833      Cuts: 34      103  100.00%
Elapsed time = 0.58 sec. (470.40 ticks, tree = 0.01 MB, solutions = 1)
*   140+   52                           -3.1139       -0.0000           100.00%
*   181+   96                           -2.1895       -0.0000           100.00%
    469   223       -0.0409    30       -1.9833       -0.0000     3564  100.00%
   1763   160        cutoff             -1.0728       -0.7759    16400   27.68%

Benders cuts applied:  779
Mixed integer rounding cuts applied:  1
Gomory fractional cuts applied:  10

Root node processing (before b&c):
  Real time             =    0.54 sec. (469.89 ticks)
Parallel b&c, 8 threads:
  Real time             =    0.83 sec. (497.57 ticks)
  Sync time (average)   =    0.03 sec.
  Wait time (average)   =    0.01 sec.
                          ------------
Total (root+branch&cut) =    1.37 sec. (967.46 ticks)

Solution pool: 1 solution saved.

MIP - Integer optimal solution:  Objective = -1.0728017531e+00
Solution time =    1.37 sec.  Iterations = 18621  Nodes = 1823 (1)
Deterministic time = 968.04 ticks  (705.29 ticks/sec)


Solution pool written to file 'ngp_a5_b1_n2.sol'.
Current MIP best bound = -1.0728017531e+00 (gap = -0, 0.00%)
